%nproc=16
%mem=60GB
%chk=N1_R_PA1_ts2_f9.chk
# irc=(calcfc,maxpoints=30,stepsize=5)

N1_S_PA1_ts2_opts.out

0 1
 O                 -2.15493900    2.36352000    2.66718900
 N                  1.18987100    2.27062000    1.32792900
 O                 -0.14149900    2.28846000    3.55777900
 O                  1.52833000    0.94958000   -0.48555100
 C                 -0.80108900    3.09733000    0.06414900
 N                  7.62981000    1.49245900    1.45260900
 C                  6.18474000    1.49531900    1.19703900
 C                 -0.89593900    2.31499000    2.46274900
 C                  3.45151000    1.60340900    0.75335900
 C                 -0.24630900    2.24972000    1.20872900
 C                  1.96936000    1.57332000    0.46670900
 C                  4.21075000    0.57714900    0.19578900
 C                  5.43927100    2.52026900    1.76549900
 C                  4.07270100    2.58370900    1.53268900
 C                  5.58289000    0.50652900    0.40871900
 O                  8.35803000    1.02001900    0.60021900
 O                  8.00469100    1.98882900    2.49840900
 H                 -0.73701000    0.98662000    0.71120900
 H                  1.59199100    2.60101000    2.19309900
 H                 -0.72563900    2.12374000    4.31430900
 H                 -1.89334900    3.08244000    0.04594900
 H                 -0.46431900    4.13582000    0.15239900
 H                 -0.44552900    2.68711000   -0.88391100
 H                  3.72117000   -0.18318100   -0.40463100
 H                  5.95022100    3.25586900    2.37492900
 H                  3.50692100    3.41609900    1.93729900
 H                 -2.79277900    1.98486000    1.82435900
 O                 -1.34492000    0.12533000    0.13924900
 O                 -3.46027000   -0.17365900   -1.14416100
 C                 -2.06702900    5.70062000   -2.74213100
 O                 -3.37356000   -1.06414900    1.23066900
 C                 -3.63844000    1.07653100   -3.92777100
 C                  1.97871000    0.18091000    4.41907900
 O                 -3.46279000    1.40019100    0.90837900
 C                  0.75350000   -2.17497000    0.16874900
 C                 -2.52833000   -2.06038000    4.05371900
 C                 -5.60659900    3.51931100    0.08471900
 C                 -3.86608900    4.54106100   -1.40066100
 C                 -5.60774000   -1.22477900   -0.92034100
 C                 -7.62266000    0.08065100   -1.24043100
 C                 -2.93065900    3.39214000   -3.27661100
 C                 -2.97751900    4.53005000   -2.47346100
 C                 -3.86185000   -3.04252900   -0.02380100
 C                 -4.60413900    2.30276100   -1.91909100
 C                 -4.85293000   -0.10747900   -1.24208100
 C                 -5.20423000   -2.65994900   -0.62482100
 C                 -3.72741900    2.27744100   -3.01932100
 C                 -5.17485000   -3.51510900   -1.92528100
 C                 -4.68211900    3.44783100   -1.10613100
 C                 -7.00079000   -1.10472900   -0.87313100
 C                 -6.84055000    1.16760100   -1.62668100
 C                 -1.83048000   -2.91716000    1.31515900
 C                 -3.02623000   -2.35816000    0.84720900
 C                 -4.44820100   -4.80929900   -1.51840100
 C                 -5.44358000    1.10936100   -1.60641100
 C                 -2.32468100   -4.91444000    0.00751900
 C                 -0.86816000   -2.12728000    2.13767900
 C                 -3.47948000   -4.31070900   -0.47158100
 C                 -0.27532000   -0.94543000    4.15673900
 C                 -1.51802000   -4.21722000    0.90272900
 C                 -1.20044000   -1.70402000    3.43391900
 C                  1.27107000   -1.03295000    2.33469900
 C                  0.37826000   -1.78688000    1.57704900
 C                  0.96692000   -0.60456000    3.62576900
 C                 -6.40034000   -3.10458900    0.26287900
 C                 -7.61669000   -2.38134900   -0.34654100
 P                 -2.85635000    0.15266000    0.30688900
 H                 -1.95195900    5.87542000   -3.81500100
 H                 -2.45086900    6.61556000   -2.28488100
 H                 -1.06811900    5.51651000   -2.33179100
 H                 -3.04882000    0.28046100   -3.46298100
 H                 -3.15974000    1.34584100   -4.87165100
 H                 -4.62915000    0.66922100   -4.14759100
 H                  2.74184000   -0.48007000    4.84234900
 H                  2.49482000    0.90637000    3.78149900
 H                  1.51217000    0.72282000    5.24552900
 H                  1.11571000   -3.20720000    0.11781900
 H                 -0.10325000   -2.08190000   -0.50116100
 H                  1.53471000   -1.51002000   -0.20394100
 H                 -2.77622000   -3.11051000    3.87606900
 H                 -3.33416000   -1.45765900    3.62352900
 H                 -2.51035000   -1.88945000    5.13243900
 H                 -6.63329900    3.75336100   -0.21581100
 H                 -5.62047900    2.57245100    0.62719900
 H                 -5.27783900    4.30503100    0.76925900
 H                 -3.91957900    5.42167100   -0.76367100
 H                 -8.70462000    0.16866100   -1.21256100
 H                 -2.25490900    3.36921000   -4.12904100
 H                 -4.58415000   -2.98212900   -2.67782100
 H                 -6.17567000   -3.68137900   -2.33323100
 H                 -7.31263900    2.10020100   -1.92059100
 H                 -3.94205100   -5.29453900   -2.35701100
 H                 -5.14557100   -5.54130900   -1.09289100
 H                 -2.03540100   -5.90381000   -0.33369100
 H                 -0.52848000   -0.63352000    5.16925900
 H                 -0.59793000   -4.66347000    1.26811900
 H                  2.23564000   -0.77276000    1.90157900
 H                 -6.50830000   -4.19230900    0.29688900
 H                 -6.22909000   -2.74558900    1.28306900
 H                 -8.40626000   -2.18937900    0.38479900
 H                 -8.06395000   -2.96786900   -1.15820100
 O                  6.28416000   -0.55632100   -0.07734100
 C                  6.75980000   -0.38414100   -1.39993100
 H                  5.93380000   -0.38888100   -2.12072100
 H                  7.34239000    0.53677900   -1.49072100
 C                  7.66683000   -1.56437100   -1.67433100
 C                  8.26516000   -1.52736100   -3.08378100
 F                  8.68965000   -1.58964100   -0.80074100
 F                  6.98021000   -2.72216100   -1.56244100
 F                  7.28519000   -1.53555100   -3.99260100
 F                  8.98009000   -0.41232100   -3.24744100
 F                  9.04978000   -2.57711100   -3.28871100

--Link1--
%nproc=16
%mem=60GB
%chk=N1_R_PA1_ts2_f9.chk
# irc=(restart,maxpoints=60,stepsize=20) geom=allcheck guess=read 

Title

