%nprocshared=16
%mem=60GB
%chk=N2_ts2_invS_t2_opts_irc_lqa.chk
#p irc=(ReadCartesianFC,maxpoints=30,lqa,stepsize=5) 6-31g(d,p) m062x

TITLE

0 1
 O                  1.52178156    2.94104797    4.44765669
 N                 -0.14930844    1.86801797    1.37566669
 O                 -0.35547844    1.76914797    4.30390669
 O                 -2.06100844    1.59703797    2.61094669
 C                  1.65608156    3.51290797    1.72229669
 N                 -4.08711844   -1.60535203   -2.45872331
 C                 -3.41745844   -0.75225203   -1.47092331
 C                  0.58408156    2.34476797    3.71107669
 C                 -2.06575844    0.76321797    0.40054669
 C                  0.86247156    2.35078797    2.30355669
 C                 -1.37978844    1.45286797    1.52543669
 C                 -1.35514844    0.15683797   -0.64128331
 C                 -4.14193844   -0.14493203   -0.44016331
 C                 -3.44873844    0.61319797    0.49508669
 C                 -2.04037844   -0.60959203   -1.57249331
 O                 -5.21771844   -1.30625203   -2.79418331
 O                 -3.45170844   -2.54957203   -2.88810331
 H                  1.29069156    2.78056797    5.37499669
 H                  0.29718156    1.69758797    0.45862669
 H                 -1.39118844    1.67773797    3.44775669
 H                  1.05849156    4.42921797    1.66583669
 H                  2.53360156    3.70232797    2.34147669
 H                  2.00356156    3.26134797    0.71577669
 H                 -0.27340844    0.22148797   -0.71554331
 H                 -3.99254844    1.03363797    1.33358669
 O                  2.40556156    0.33486797    1.80032669
 O                  4.08142156    0.23162797   -0.00795331
 C                  3.69169156    6.49266797    0.04927669
 O                  2.02763156   -1.26749203   -0.19642331
 C                  6.41432156    2.26458797   -0.08822331
 C                 -3.55016844   -1.38185203    3.11093669
 O                  1.69847156    1.17819797   -0.54644331
 C                  1.36243156   -1.38860203    4.14108669
 C                 -0.34927844   -3.36112203   -0.23351331
 C                  2.38901156    2.82623797   -3.13959331
 C                  3.13474156    4.61979797   -1.55008331
 C                  4.67313156   -1.21759203   -1.80991331
 C                  5.13021156   -0.30577203   -4.00386331
 C                  5.01483156    4.34881797   -0.09771331
 C                  3.95832156    5.13572797   -0.55056331
 C                  3.81097156   -2.83277203    0.13555669
 C                  4.39926156    2.56577797   -1.60471331
 C                  4.47245156    0.06710797   -1.33108331
 C                  4.67009156   -2.55152203   -1.08588331
 C                  5.25070156    3.07158797   -0.60738331
 C                  6.07483156   -2.91095203   -0.52402331
 C                  3.33345156    3.34742797   -2.08555331
 C                  4.96216156   -1.39974203   -3.16480331
 C                  4.97947156    0.97899797   -3.48430331
 C                  1.87066156   -2.84998203    1.60626669
 C                  2.57161156   -2.33493203    0.50941669
 C                  5.81712156   -4.09194203    0.43109669
 C                  4.62446156    1.19390797   -2.14825331
 C                  3.76868156   -4.31444203    2.04991669
 C                  0.49591156   -2.37928203    1.95515669
 C                  4.42497156   -3.79608203    0.94172669
 C                 -1.87511844   -2.35454203    1.48386669
 C                  2.48803156   -3.85691203    2.35559669
 C                 -0.57562844   -2.68083203    1.09353669
 C                 -1.05964844   -1.37092203    3.50344669
 C                  0.25239156   -1.71325203    3.17093669
 C                 -2.14044844   -1.70568203    2.68718669
 C                  4.31560156   -3.50243203   -2.26595331
 C                  5.00804156   -2.87529203   -3.49111331
 P                  2.49088156    0.21674797    0.27720669
 H                  1.73498156    1.28149797    2.18854669
 H                  3.19925156    7.15409797   -0.66769331
 H                  3.03798156    6.40968797    0.92482669
 H                  4.61823156    6.97087797    0.37654669
 H                  7.10166156    2.89985797    0.47463669
 H                  6.96873156    1.79643797   -0.90644331
 H                  6.06760156    1.46529797    0.57398669
 H                 -3.62475844   -0.34182203    3.44319669
 H                 -4.26039844   -1.53453203    2.29347669
 H                 -3.86035844   -2.01830203    3.94585669
 H                  1.06953156   -0.54159203    4.76843669
 H                  1.56019156   -2.23672203    4.80604669
 H                  2.28814156   -1.13903203    3.62165669
 H                  0.24576156   -2.72624203   -0.89883331
 H                 -1.30117844   -3.57187203   -0.72788331
 H                  0.19595156   -4.30224203   -0.11149331
 H                  2.86232156    2.78237797   -4.12524331
 H                  2.05089156    1.82075797   -2.87943331
 H                  1.51502156    3.47688797   -3.21932331
 H                  2.30528156    5.22042797   -1.91799331
 H                  5.36402156   -0.44569203   -5.05502331
 H                  5.67865156    4.73881797    0.67119669
 H                  6.45116156   -2.05273203    0.04275669
 H                  6.79238156   -3.13683203   -1.31799331
 H                  5.11684156    1.84405797   -4.12636331
 H                  6.55247156   -4.15319203    1.23779669
 H                  5.84325156   -5.04960203   -0.10315331
 H                  4.24529156   -5.06374203    2.67483669
 H                 -2.70209844   -2.61185203    0.82348669
 H                  1.95131156   -4.26749203    3.20594669
 H                 -1.24018844   -0.84188203    4.43767669
 H                  4.61880156   -4.53493203   -2.07081331
 H                  3.22972156   -3.48778203   -2.40856331
 H                  4.50256156   -3.11181203   -4.43120331
 H                  6.04399156   -3.22370203   -3.58455331
 H                 -1.51649844   -1.13198203   -2.36415331
 O                 -5.47365844   -0.37768203   -0.25850331
 C                 -6.32412844    0.58726797   -0.85123331
 H                 -6.25306844    1.54938797   -0.33052331
 H                 -6.09849844    0.70859797   -1.91411331
 C                 -7.73081844    0.04721797   -0.70708331
 C                 -8.78249844    0.98620797   -1.30540331
 F                 -7.84693844   -1.14084203   -1.32698331
 F                 -8.03878844   -0.11852203    0.59766669
 F                 -8.71707844    2.17897797   -0.70465331
 F                 -8.55164844    1.15938797   -2.60803331
 F                -10.00175844    0.49041797   -1.14410331

