%nprocshared=16
%mem=60GB
%chk=N2_ts2_invR_t1_try2_opts_irc_lqa.chk
#p irc=(rcfc,maxpoints=30,lqa,stepsize=5) 6-31g(d,p) m062x

TITLE

0 1
 O                  0.33813776    5.31377355   -1.99568210
 N                 -1.51321024    2.69431155   -0.27517210
 O                 -1.67560124    4.48243155   -2.46029210
 O                 -3.37583124    3.88112055   -0.83830210
 C                  0.22116876    4.19392255    0.64617790
 N                 -6.18394824   -1.19043045    1.90479790
 C                 -5.27896824   -0.16681045    1.36780790
 C                 -0.66299124    4.47472255   -1.71668210
 C                 -3.68267924    1.82585055    0.32126790
 C                 -0.43837124    3.61727255   -0.60134210
 C                 -2.81064024    2.85696155   -0.29814210
 C                 -3.11015924    0.79383155    1.06191790
 C                 -5.85530924    0.88213955    0.66313790
 C                 -5.06191024    1.88815955    0.12819790
 C                 -3.88842824   -0.24876945    1.56154790
 O                 -7.22568824   -1.37294145    1.29850790
 O                 -5.85108724   -1.75966045    2.92287790
 H                  0.06451776    5.82086255   -2.77428210
 H                 -1.16550924    1.75052255   -0.04014210
 H                 -2.71573124    4.23292155   -1.61594210
 H                  0.59485976    3.38923355    1.28665790
 H                  1.08371876    4.79573355    0.35438790
 H                 -0.46954124    4.81563255    1.22784790
 H                 -2.04338924    0.76715155    1.22911790
 H                 -5.49340024    2.70579955   -0.43613210
 O                  1.55055976    1.94853355   -0.77620210
 O                  1.48706176   -0.21910645   -1.91981210
 C                 -4.02080024    2.25958055   -3.57654210
 O                  2.14425176   -0.20796545    0.52810790
 C                  0.47497076    0.27960355   -4.55054210
 C                  2.06147876    4.87739455    4.43250790
 O                 -0.25105924    0.24741255   -0.01131210
 C                  4.17331876    3.69282555    0.02986790
 C                  3.14624176    0.06057455    3.43877790
 C                 -2.72071724   -2.00495845   -1.27034210
 C                 -3.27556824    0.11366055   -2.46509210
 C                  2.08114276   -2.51437545   -1.64816210
 C                  0.49415376   -4.25276645   -2.19768210
 C                 -1.76122924    1.20580155   -3.95320210
 C                 -2.99799924    1.18426155   -3.31413210
 C                  4.09051176   -1.12242445   -0.54316210
 C                 -1.10376824   -0.86462745   -2.89016210
 C                  1.16490176   -1.56197645   -2.06097210
 C                  3.51783276   -2.38006545   -1.17956210
 C                 -0.81597924    0.19461255   -3.77266210
 C                  4.49928276   -2.55733445   -2.37481210
 C                 -2.35243824   -0.90517845   -2.23577210
 C                  1.70814376   -3.86087645   -1.65051210
 C                 -0.37747624   -3.27949745   -2.68217210
 C                  4.26771076    0.86947555    0.84919790
 C                  3.51166176   -0.15891545    0.27282790
 C                  5.85821276   -2.08462345   -1.83420210
 C                 -0.09001724   -1.91342745   -2.57731210
 C                  6.23159176   -0.00969345   -0.29317210
 C                  3.65855976    1.88991455    1.75160790
 C                  5.45166176   -1.01365345   -0.84977210
 C                  2.62927976    2.48285455    3.85329790
 C                  5.63674076    0.91076655    0.56456790
 C                  3.13909076    1.50316455    2.99864790
 C                  3.16435876    4.19321455    2.27187790
 C                  3.66468976    3.24726455    1.37923790
 C                  2.63495876    3.83212455    3.51033790
 C                  3.60803376   -3.61496545   -0.23968210
 C                  2.75310376   -4.69150545   -0.93989210
 P                  1.13343076    0.48936355   -0.51606210
 H                  0.69082976    2.70204355   -0.89090210
 H                 -3.53949024    3.22787055   -3.73569210
 H                 -4.60629024    2.02521055   -4.47180210
 H                 -4.72047024    2.35307055   -2.74148210
 H                  0.28132076    0.66241355   -5.55581210
 H                  0.95855176   -0.69524645   -4.64213210
 H                  1.18279076    0.95238355   -4.05835210
 H                  1.90898876    4.47947355    5.43819790
 H                  2.72179776    5.74589455    4.50499790
 H                  1.09346876    5.23372355    4.06390790
 H                  3.84006876    4.71194555   -0.18246210
 H                  5.26675876    3.68520555   -0.01831210
 H                  3.79850976    3.03555555   -0.75810210
 H                  2.39435176   -0.52102545    2.89781790
 H                  2.93396176   -0.01573545    4.50737790
 H                  4.11753176   -0.40496445    3.24782790
 H                 -3.12805724   -2.88089845   -1.78622210
 H                 -1.85658724   -2.34890845   -0.70048210
 H                 -3.49352724   -1.66309945   -0.57732210
 H                 -4.23741824    0.07159055   -1.95607210
 H                  0.21046476   -5.30051745   -2.22483210
 H                 -1.52673024    2.02954155   -4.62467210
 H                  4.17606276   -1.89750445   -3.18687210
 H                  4.50705376   -3.58304445   -2.75343210
 H                 -1.33111624   -3.57480745   -3.10792210
 H                  6.51952276   -1.70334345   -2.61680210
 H                  6.39124276   -2.89855345   -1.32742210
 H                  7.28916176    0.06280755   -0.52846210
 H                  2.23169976    2.18087455    4.81987790
 H                  6.23272076    1.69515655    1.02164790
 H                  3.17166876    5.24306455    1.98341790
 H                  4.64083376   -3.92451445   -0.05640210
 H                  3.15330376   -3.35059545    0.72153790
 H                  2.29962476   -5.39134545   -0.23212210
 H                  3.34832476   -5.28272545   -1.64589210
 H                 -6.93052924    0.87447855    0.53175790
 O                 -3.35367824   -1.33330945    2.15252790
 C                 -1.94494824   -1.46993845    2.07970790
 H                 -1.54562824   -1.14056845    1.11520790
 H                 -1.45235824   -0.90778845    2.88113790
 C                 -1.62649724   -2.94026845    2.24276790
 C                 -0.14068724   -3.21850745    1.97418790
 F                 -1.90655624   -3.37731845    3.48681790
 F                 -2.33574624   -3.67947845    1.36460790
 F                  0.17887276   -2.85343745    0.73077790
 F                  0.61258276   -2.51783645    2.82704790
 F                  0.13282376   -4.50999745    2.12304790

